Optimal - objective value -104.04781600
      9 player_9                 1               -18.18602
     19 player_19                1              -22.891583
     75 player_75                1                 -8.5416
     76 player_76                1              -14.559475
     90 player_90                1              -11.882875
    117 player_117               1               -9.462824
    121 player_121               1               -7.296814
    216 player_216               1                -2.87965
    233 player_233               1               -8.346975
